c FILE: aim-50-1_6-yes1-1.cnf
c
c SOURCE: Kazuo Iwama, Eiji Miyano (miyano@cscu.kyushu-u.ac.jp),
c          and Yuichi Asahiro
c
c DESCRIPTION: Artifical instances from generator by source.  Generators
c              and more information in sat/contributed/iwama.
c
c NOTE: Satisfiable
c Simplified to make processing faster
p cnf 20 30
5 10 11 0
-5 10 14 0
7 -10 11 0
-7 14 11 0
4 -14 16 0
-1 -14 13 0
1 6 16 0
-6 15 17 0
6 15 8 0
6 -13 -8 0
13 2 9 0
3 16 -9 0
-3 -20 -9 0
-3 20 12 0
18 -20 -12 0
-18 19 -12 0
-18 -19 17 0
-19 -2 17 0
-2 -7 -17 0
18 -7 8 0
15 -18 -8 0
15 4 -6 0
-4 -6 11 0
3 -4 1 0
-1 17 -20 0
8 5 12 0
-15 2 7 0
-8 -10 13 0
3 -8 10 0
10 -13 19 0